language Essence 1.3

letting network be
        mset({1, 3, 5, 7, 13}, {2, 3, 8, 9, 10}, {2, 6, 8, 11}, {4, 5, 10, 12}, {4, 5, 10, 12}, {4, 6, 7, 9, 13},
             {4, 6, 7, 9, 13})
$ Here is a simple "visualisation" for the value above.
$  1  3  5  7 13
$  2  3  8  9 10
$  2  6  8 11
$  4  5 10 12
$  4  5 10 12
$  4  6  7  9 13
$  4  6  7  9 13

